log  lammps.log
units  metal
dimension  3
boundary  p p p
atom_style  full
pair_style  buck/coul/long 10.0
kspace_style  pppm 0.000010
pair_modify tail yes
pair_modify mix arithmetic
special_bonds  amber
bond_style  harmonic
angle_style  harmonic
dihedral_style  charmm
improper_style  cvff
read_data  initial.data
pair_coeff 1 1 1309362.2766468062 0.104 0.0
pair_coeff 1 2 9892.357 0.20199 0.0
pair_coeff 2 2 2145.7345 0.3 30.2222
set type 2 charge -1.400000
set type 1 charge 1.400000
neighbor  2.0 bin
neigh_modify  delay 0 every 1 check yes page 1000000 one 20000
timestep  0.001
dump  DUMP all custom 2000 mol.lammpstrj id type x y z vx vy vz mol
thermo_style  custom step vol temp press ke pe etotal enthalpy evdwl ecoul epair ebond eangle edihed eimp emol elong etail lx ly lz xy xz yz pxy pxz pyz pxx pyy pzz density
thermo  1000
fix  1 all box/relax iso 0.0 vmax 0.001
restart  5000 current.restart
min_style  cg
minimize  1.0e-10 1.0e-10 2000 100000
write_restart  final.restart
write_data  final.data pair ij
