log  lammps.log
units  metal
dimension  3
boundary  p p p
atom_style  full
read_data  initial.data
kspace_style  pppm 0.000010
pair_style  buck/coul/long 10
pair_coeff 1 1 1309362.2766468062 0.104 0.0
pair_coeff 1 2 9892.357 0.20199 0.0
pair_coeff 2 2 2145.7345 0.3 30.2222
set type 2 charge -1.400000
set type 1 charge 1.400000
dump  1 all custom 1 mol.lammpstrj id type x y z fx fy fz
dump_modify  1 sort id
thermo_style  custom step etotal pxx pyy pzz pxy pxz pyz
run  0

